Maximize
  0 x0 + 40 x1 + 22 x2 + 0 x3 + 0 x4 + 24 x5 - 2 x6 + 0 x7 - x8 - 42 x9
   + 23 x10 + 0 x11 + 0 x12 + 0 x13 + 4 x14 + 0 x15 + 6 x16 - 28 x17
   + 44 x18 + 37 x19 + 0 x20 + 0 x21 + 22 x22 - 39 x23 - 48 x24 + 0 x25
   - 36 x26 - 41 x27 - 17 x28 - 32 x29 + 0 x30 - 45 x31 - 42 x32 - 16 x33
   + 0 x34 + 27 x35 + 26 x36 + 0 x37 - 47 x38 + 0 x39 + 48 x40 + 0 x41
   + 0 x42 + 5 x43 + 0 x44 + 29 x45 + 0 x46 + 0 x47 + 0 x48 - 10 x49
   + 27 x50 + 0 x51 + 0 x52 + 31 x53 + 0 x54 + 0 x55 + 0 x56 - 2 x57
   + 0 x58 + 0 x59 + 0 x60 + 34 x61 + 0 x62 + 0 x63 - 20 x64 + 0 x65
   + 0 x66 + 0 x67 + 0 x68 + 0 x69 - 48 x70 + 0 x71 + 0 x72 - 15 x73
   + 0 x74 + 0 x75 + 0 x76 - 38 x77 + 0 x78 + 0 x79 + 18 x80 + 11 x81
   + 15 x82 + 18 x83 + 0 x84 + 0 x85 - x86 - 39 x87 - 6 x88 + 47 x89
   + 0 x90 - x91 + 0 x92 - 21 x93 + 0 x94 - 7 x95 + 0 x96 + 0 x97 + 20 x98
   + 13 x99 + [ 7 x0 ^2 - 12 x0 * x1 - 80 x0 * x2 + 10 x0 * x3 - 88 x0 * x7
   + 2 x0 * x8 - 88 x0 * x10 + 66 x0 * x11 + 50 x0 * x12 - 82 x0 * x17
   + 40 x0 * x19 - 64 x0 * x22 + 40 x0 * x23 + 90 x0 * x30 + 44 x0 * x31
   + 60 x0 * x32 + 84 x0 * x35 - 26 x0 * x36 + 54 x0 * x37 + 8 x0 * x38
   + 66 x0 * x39 + 50 x0 * x41 - 26 x0 * x42 + 86 x0 * x44 + 50 x0 * x45
   + 14 x0 * x46 + 14 x0 * x49 + 24 x0 * x51 + 38 x0 * x52 - 78 x0 * x53
   - 42 x0 * x62 + 24 x0 * x63 + 76 x0 * x64 - 88 x0 * x65 - 24 x0 * x67
   - 74 x0 * x69 + 58 x0 * x70 - 62 x0 * x72 - 26 x0 * x73 - 80 x0 * x77
   + 58 x0 * x79 + 42 x0 * x83 - 24 x0 * x86 - 4 x0 * x88 - 26 x0 * x90
   + 18 x0 * x95 - 42 x0 * x96 + 98 x0 * x97 - 46 x1 * x6 - 34 x1 * x7
   + 44 x1 * x12 + 16 x1 * x17 + 56 x1 * x19 + 70 x1 * x20 - 24 x1 * x21
   - 74 x1 * x23 + 12 x1 * x24 - 46 x1 * x27 - 98 x1 * x28 + 70 x1 * x30
   + 24 x1 * x31 + 84 x1 * x32 - 8 x1 * x34 + 36 x1 * x35 - 10 x1 * x36
   + 2 x1 * x39 - 54 x1 * x40 + 78 x1 * x42 + 48 x1 * x43 + 78 x1 * x44
   - 16 x1 * x50 - 82 x1 * x51 + 86 x1 * x52 - 62 x1 * x56 - 30 x1 * x60
   + 74 x1 * x63 - 36 x1 * x64 - 54 x1 * x66 + 54 x1 * x68 + 78 x1 * x70
   - 92 x1 * x72 + 58 x1 * x73 + 72 x1 * x75 + 66 x1 * x78 + 8 x1 * x79
   - 44 x1 * x83 + 98 x1 * x89 + 44 x1 * x92 + 20 x1 * x94 - 48 x1 * x95
   + 22 x1 * x96 + 46 x1 * x97 + 26 x1 * x98 + 10 x1 * x99 - 26 x2 ^2
   + 20 x2 * x4 + 16 x2 * x6 + 32 x2 * x8 - 22 x2 * x14 - 24 x2 * x16
   - 24 x2 * x19 - 60 x2 * x21 - 60 x2 * x22 - 76 x2 * x23 - 36 x2 * x24
   - 78 x2 * x25 - 6 x2 * x27 + 32 x2 * x30 + 84 x2 * x35 - 48 x2 * x36
   + 8 x2 * x38 + 6 x2 * x39 - 34 x2 * x40 - 76 x2 * x42 + 82 x2 * x45
   + 40 x2 * x46 - 32 x2 * x48 - 2 x2 * x51 + 88 x2 * x53 + 94 x2 * x54
   + 4 x2 * x56 - 80 x2 * x57 - 42 x2 * x58 + 4 x2 * x59 - 42 x2 * x61
   - 14 x2 * x62 - 60 x2 * x63 + 94 x2 * x69 + 10 x2 * x73 + 50 x2 * x74
   + 74 x2 * x75 + 78 x2 * x77 - 40 x2 * x78 - 74 x2 * x80 - 28 x2 * x81
   + 16 x2 * x82 - 34 x2 * x83 + 22 x2 * x86 + 30 x2 * x88 - 86 x2 * x89
   - 68 x2 * x90 + 80 x2 * x92 - 64 x2 * x95 - 44 x2 * x96 - 20 x2 * x97
   + 30 x2 * x98 + 52 x2 * x99 - 14 x3 ^2 + 80 x3 * x4 + 70 x3 * x5
   - 36 x3 * x6 + 74 x3 * x7 + 76 x3 * x10 + 86 x3 * x11 + 48 x3 * x15
   + 36 x3 * x16 - 56 x3 * x17 - 64 x3 * x18 + 46 x3 * x19 - 38 x3 * x20
   + 18 x3 * x21 - 60 x3 * x24 + 22 x3 * x25 + 28 x3 * x26 + 8 x3 * x27
   - 82 x3 * x30 - 72 x3 * x32 + 68 x3 * x34 - 72 x3 * x35 - 58 x3 * x36
   + 46 x3 * x40 - 80 x3 * x41 - 88 x3 * x42 + 80 x3 * x43 - 78 x3 * x44
   - 48 x3 * x48 - 90 x3 * x49 + 64 x3 * x50 - 14 x3 * x52 - 60 x3 * x53
   + 32 x3 * x57 + 14 x3 * x58 + 64 x3 * x60 + 54 x3 * x61 + 12 x3 * x62
   - 44 x3 * x63 - 98 x3 * x65 + 70 x3 * x66 + 84 x3 * x67 - 46 x3 * x68
   + 82 x3 * x72 - 52 x3 * x77 + 66 x3 * x80 - 8 x3 * x81 - 88 x3 * x84
   + 48 x3 * x86 - 84 x3 * x89 - 74 x3 * x91 - 36 x3 * x92 - 2 x3 * x93
   + 62 x3 * x94 + 96 x3 * x96 + 62 x3 * x97 + 22 x3 * x99 - 68 x4 * x7
   - 8 x4 * x8 - 26 x4 * x12 + 16 x4 * x14 - 78 x4 * x17 - 76 x4 * x18
   - 94 x4 * x19 - 46 x4 * x20 - 90 x4 * x21 - 28 x4 * x24 - 60 x4 * x28
   - 76 x4 * x29 - 68 x4 * x32 + 14 x4 * x34 + 32 x4 * x38 - 24 x4 * x39
   - 74 x4 * x50 + 72 x4 * x56 + 58 x4 * x59 + 88 x4 * x62 - 32 x4 * x65
   + 32 x4 * x66 + 4 x4 * x68 - 56 x4 * x69 - 76 x4 * x70 - 52 x4 * x71
   - 70 x4 * x72 + 84 x4 * x73 + 88 x4 * x76 - 70 x4 * x79 + 88 x4 * x81
   + 22 x4 * x83 - 8 x4 * x84 + 34 x4 * x85 + 86 x4 * x86 + 14 x4 * x90
   - 6 x4 * x91 - 72 x4 * x92 - 54 x4 * x93 - 10 x5 * x6 - 44 x5 * x7
   - 52 x5 * x9 - 38 x5 * x11 + 60 x5 * x13 - 36 x5 * x14 + 92 x5 * x15
   + 38 x5 * x16 - 94 x5 * x18 + 8 x5 * x19 - 74 x5 * x22 + 34 x5 * x24
   - 88 x5 * x25 + 66 x5 * x27 - 84 x5 * x30 - 24 x5 * x31 - 86 x5 * x32
   - 28 x5 * x34 + 86 x5 * x35 + 84 x5 * x36 - 18 x5 * x39 + 62 x5 * x41
   + 52 x5 * x42 - 40 x5 * x43 + 66 x5 * x45 - 86 x5 * x46 - 92 x5 * x51
   - 98 x5 * x52 + 36 x5 * x54 - 92 x5 * x58 + 16 x5 * x59 + 28 x5 * x60
   + 68 x5 * x63 + 10 x5 * x65 - 6 x5 * x66 + 6 x5 * x68 + 42 x5 * x69
   - 66 x5 * x70 + 60 x5 * x71 + 80 x5 * x72 - 8 x5 * x73 + 74 x5 * x74
   - 14 x5 * x75 - 96 x5 * x80 + 76 x5 * x83 - 22 x5 * x85 - 86 x5 * x86
   + 50 x5 * x89 - 52 x5 * x91 + 4 x5 * x93 + 30 x5 * x95 - 32 x5 * x99
   + 19 x6 ^2 - 40 x6 * x7 + 68 x6 * x8 + 20 x6 * x13 - 58 x6 * x15
   - 36 x6 * x18 - 6 x6 * x20 - 78 x6 * x21 - 26 x6 * x23 - 12 x6 * x24
   - 66 x6 * x25 + 96 x6 * x26 - 84 x6 * x27 - 64 x6 * x30 - 94 x6 * x36
   - 36 x6 * x38 + 24 x6 * x39 + 66 x6 * x46 - 12 x6 * x48 + 66 x6 * x50
   - 14 x6 * x52 + 28 x6 * x55 + 42 x6 * x56 + 44 x6 * x58 - 84 x6 * x61
   + 32 x6 * x62 - 62 x6 * x65 - 10 x6 * x67 + 72 x6 * x68 - 96 x6 * x70
   - 86 x6 * x77 + 70 x6 * x78 + 22 x6 * x81 - 88 x6 * x82 + 30 x6 * x83
   - 66 x6 * x85 + 88 x6 * x86 + 38 x6 * x89 + 26 x6 * x91 + 72 x6 * x93
   - 78 x6 * x94 + 32 x6 * x95 + 18 x6 * x96 + 34 x6 * x98 + 14 x6 * x99
   + 48 x7 ^2 + 14 x7 * x9 + 30 x7 * x12 + 6 x7 * x13 + 38 x7 * x18
   - 58 x7 * x19 + 10 x7 * x21 + 4 x7 * x24 - 14 x7 * x33 + 68 x7 * x34
   + 68 x7 * x37 - 24 x7 * x41 - 32 x7 * x42 + 40 x7 * x43 - 68 x7 * x44
   + 96 x7 * x46 - 78 x7 * x47 - 22 x7 * x48 - 52 x7 * x49 + 56 x7 * x51
   + 52 x7 * x52 + 58 x7 * x53 - 60 x7 * x56 + 28 x7 * x57 - 60 x7 * x58
   - 10 x7 * x60 + 98 x7 * x63 + 4 x7 * x66 + 60 x7 * x67 + 20 x7 * x69
   + 12 x7 * x73 + 70 x7 * x74 + 60 x7 * x75 - 92 x7 * x76 + 36 x7 * x77
   + 88 x7 * x80 + 64 x7 * x81 + 80 x7 * x83 + 32 x7 * x86 + 32 x7 * x88
   + 42 x7 * x89 + 38 x7 * x94 - 68 x7 * x97 - 30 x8 * x11 - 12 x8 * x12
   - 6 x8 * x13 + 8 x8 * x15 + 88 x8 * x17 + 40 x8 * x21 + 86 x8 * x24
   - 84 x8 * x26 + 94 x8 * x27 + 34 x8 * x28 - 76 x8 * x29 - 84 x8 * x30
   - 20 x8 * x34 - 78 x8 * x35 - 2 x8 * x39 - 16 x8 * x40 - 64 x8 * x41
   + 34 x8 * x43 - 14 x8 * x44 + 58 x8 * x46 - 78 x8 * x47 + 60 x8 * x48
   - 90 x8 * x50 + 6 x8 * x53 - 74 x8 * x54 + 4 x8 * x55 + 6 x8 * x56
   + 60 x8 * x58 + 22 x8 * x59 - 4 x8 * x60 - 66 x8 * x61 - 44 x8 * x62
   + 32 x8 * x63 - 82 x8 * x68 + 28 x8 * x71 - 88 x8 * x74 - 74 x8 * x77
   + 88 x8 * x81 + 72 x8 * x83 + 50 x8 * x84 - 8 x8 * x87 - 40 x8 * x88
   + 90 x8 * x89 - 70 x8 * x91 + 56 x8 * x93 + 94 x8 * x94 - 68 x8 * x96
   - 20 x8 * x97 + 10 x8 * x98 + 22 x9 * x10 + 76 x9 * x11 + 94 x9 * x14
   + 98 x9 * x16 + 76 x9 * x20 + 72 x9 * x23 - 72 x9 * x27 - 98 x9 * x29
   + 8 x9 * x31 - 34 x9 * x33 - 62 x9 * x36 - 42 x9 * x39 - 2 x9 * x43
   - 88 x9 * x45 + 86 x9 * x46 + 88 x9 * x47 + 82 x9 * x48 - 34 x9 * x50
   + 34 x9 * x52 - 98 x9 * x56 + 74 x9 * x57 + 76 x9 * x58 - 30 x9 * x59
   + 20 x9 * x62 - 4 x9 * x63 + 66 x9 * x64 + 42 x9 * x65 + 2 x9 * x69
   - 76 x9 * x75 - 10 x9 * x76 + 30 x9 * x77 - 38 x9 * x78 - 8 x9 * x79
   - 74 x9 * x82 + 74 x9 * x83 + 40 x9 * x85 - 32 x9 * x86 - 40 x9 * x87
   - 54 x9 * x88 - 56 x9 * x90 + 96 x9 * x91 + 2 x9 * x94 + 27 x10 ^2
   - 98 x10 * x12 + 34 x10 * x14 + 90 x10 * x15 - 44 x10 * x16
   + 38 x10 * x19 - 16 x10 * x21 + 90 x10 * x26 + 52 x10 * x27
   + 82 x10 * x31 + 76 x10 * x32 - 34 x10 * x35 + 14 x10 * x37
   + 40 x10 * x43 - 44 x10 * x44 + 2 x10 * x45 + 82 x10 * x47 + 2 x10 * x52
   + 6 x10 * x53 + 62 x10 * x55 - 8 x10 * x56 + 32 x10 * x57 - 46 x10 * x58
   - 34 x10 * x62 + 38 x10 * x63 - 18 x10 * x64 + 20 x10 * x65
   - 4 x10 * x67 - 26 x10 * x69 - 68 x10 * x70 + 58 x10 * x72 + 4 x10 * x75
   - 78 x10 * x76 - 66 x10 * x79 - 38 x10 * x81 + 70 x10 * x84
   - 76 x10 * x85 - 68 x10 * x86 - 28 x10 * x87 + 36 x10 * x89
   + 58 x10 * x92 - 72 x10 * x94 - 12 x10 * x97 + 20 x10 * x98
   + 58 x10 * x99 - 32 x11 ^2 - 24 x11 * x12 + 58 x11 * x13 + 22 x11 * x15
   + 86 x11 * x16 + 80 x11 * x17 - 68 x11 * x18 + 80 x11 * x19
   + 74 x11 * x22 - 32 x11 * x24 + 56 x11 * x25 - 66 x11 * x28
   - 46 x11 * x29 + 6 x11 * x31 - 20 x11 * x32 - 48 x11 * x35
   - 28 x11 * x36 - 90 x11 * x41 + 92 x11 * x44 - 62 x11 * x45
   + 18 x11 * x46 - 58 x11 * x47 - 70 x11 * x51 - 72 x11 * x52
   - 46 x11 * x54 + 32 x11 * x56 - 58 x11 * x57 + 56 x11 * x58
   - 80 x11 * x60 + 64 x11 * x61 + 76 x11 * x62 - 4 x11 * x64
   - 78 x11 * x69 - 42 x11 * x70 - 96 x11 * x73 + 54 x11 * x74
   + 44 x11 * x76 + 98 x11 * x78 - 2 x11 * x79 - 46 x11 * x81
   - 16 x11 * x83 - 36 x11 * x86 + 46 x11 * x87 - 28 x11 * x89
   - 4 x11 * x90 - 68 x11 * x91 + 98 x11 * x93 + 10 x11 * x97
   + 70 x12 * x19 - 62 x12 * x20 - 62 x12 * x24 + 16 x12 * x25
   - 74 x12 * x30 + 80 x12 * x31 + 62 x12 * x36 + 88 x12 * x37
   + 46 x12 * x39 - 50 x12 * x43 - 92 x12 * x47 - 18 x12 * x54
   - 54 x12 * x57 - 16 x12 * x60 + 48 x12 * x63 - 50 x12 * x64
   + 36 x12 * x65 + 46 x12 * x69 - 36 x12 * x72 + 78 x12 * x73
   - 48 x12 * x74 - 82 x12 * x78 - 24 x12 * x81 - 60 x12 * x82
   - 66 x12 * x83 - 12 x12 * x84 - 94 x12 * x94 - 40 x12 * x97
   - 64 x12 * x98 + 84 x13 * x14 + 14 x13 * x18 - 18 x13 * x19
   + 60 x13 * x23 - 8 x13 * x25 + 38 x13 * x28 + 30 x13 * x30
   + 64 x13 * x32 - 24 x13 * x34 + 84 x13 * x35 + 32 x13 * x38
   + 66 x13 * x40 + 20 x13 * x41 + 20 x13 * x42 - 10 x13 * x44
   - 28 x13 * x46 + 92 x13 * x49 + 78 x13 * x51 + 12 x13 * x52
   - 22 x13 * x54 - 98 x13 * x55 + 26 x13 * x56 + 80 x13 * x57
   - 62 x13 * x58 + 98 x13 * x63 + 20 x13 * x64 - 88 x13 * x66
   - 20 x13 * x71 + 54 x13 * x73 + 34 x13 * x74 + 60 x13 * x76
   + 44 x13 * x80 + 54 x13 * x82 - 48 x13 * x83 + 50 x13 * x84
   + 40 x13 * x85 - 38 x13 * x86 + 72 x13 * x87 + 92 x13 * x98
   + 52 x13 * x99 - 24 x14 * x16 + 94 x14 * x18 + 8 x14 * x22
   + 38 x14 * x25 - 86 x14 * x26 + 46 x14 * x27 + 48 x14 * x34
   - 2 x14 * x35 + 96 x14 * x36 + 30 x14 * x38 + 36 x14 * x41
   + 34 x14 * x48 + 62 x14 * x51 + 72 x14 * x52 + 96 x14 * x54
   - 52 x14 * x56 + 82 x14 * x62 + 12 x14 * x64 + 50 x14 * x65
   + 50 x14 * x66 + 80 x14 * x73 - 20 x14 * x74 + 30 x14 * x76
   - 56 x14 * x78 - 44 x14 * x81 + 60 x14 * x82 - 12 x14 * x92
   + 38 x14 * x93 + 42 x14 * x94 - 80 x14 * x96 - 33 x15 ^2 + 30 x15 * x16
   + 80 x15 * x17 + 6 x15 * x19 - 22 x15 * x21 + 10 x15 * x25
   + 76 x15 * x26 - 32 x15 * x31 + 56 x15 * x32 - 14 x15 * x36
   - 46 x15 * x37 + 68 x15 * x38 - 58 x15 * x39 - 70 x15 * x40
   - 22 x15 * x46 - 58 x15 * x47 + 52 x15 * x49 + 22 x15 * x50
   - 78 x15 * x55 - 28 x15 * x56 + 30 x15 * x58 - 96 x15 * x60
   + 36 x15 * x61 - 30 x15 * x62 - 90 x15 * x64 - 18 x15 * x65
   + 16 x15 * x66 - 24 x15 * x69 + 28 x15 * x71 - 26 x15 * x72
   + 26 x15 * x73 - 24 x15 * x79 - 86 x15 * x82 - 2 x15 * x83
   - 28 x15 * x84 + 60 x15 * x86 + 42 x15 * x87 - 18 x15 * x88
   - 72 x15 * x90 + 94 x15 * x92 + 38 x15 * x94 - 28 x15 * x95
   + 86 x15 * x97 - 7 x16 ^2 - 90 x16 * x17 - 98 x16 * x18 - 32 x16 * x19
   - 32 x16 * x20 + 12 x16 * x22 - 14 x16 * x24 + 90 x16 * x25
   + 92 x16 * x27 - 70 x16 * x30 + 96 x16 * x33 - 10 x16 * x36
   - 68 x16 * x37 - 20 x16 * x41 - 14 x16 * x42 - 88 x16 * x46
   - 58 x16 * x47 - 62 x16 * x49 - 68 x16 * x50 - 82 x16 * x51
   + 52 x16 * x52 - 52 x16 * x53 + 2 x16 * x55 + 86 x16 * x59
   + 62 x16 * x61 - 96 x16 * x63 + 34 x16 * x66 + 92 x16 * x71
   + 36 x16 * x72 - 16 x16 * x76 + 94 x16 * x78 - 40 x16 * x79
   + 36 x16 * x80 - 14 x16 * x81 + 76 x16 * x84 - 64 x16 * x88
   - 88 x16 * x91 + 18 x16 * x95 + 28 x16 * x96 + 68 x16 * x98
   + 44 x16 * x99 + 38 x17 ^2 - 42 x17 * x18 - 36 x17 * x20 + 72 x17 * x21
   + 72 x17 * x22 - 40 x17 * x24 - 14 x17 * x28 - 98 x17 * x31
   - 78 x17 * x32 + 50 x17 * x34 - 86 x17 * x35 - 4 x17 * x38
   + 44 x17 * x40 + 20 x17 * x41 - 24 x17 * x43 - 14 x17 * x45
   - 46 x17 * x46 - 28 x17 * x49 + 14 x17 * x51 - 34 x17 * x53
   - 24 x17 * x54 - 42 x17 * x56 - 26 x17 * x60 + 76 x17 * x61
   + 18 x17 * x64 + 68 x17 * x65 + 4 x17 * x69 - 78 x17 * x71 + 8 x17 * x75
   - 64 x17 * x81 + 66 x17 * x83 - 76 x17 * x86 + 16 x17 * x87
   + 2 x17 * x89 - 78 x17 * x95 + 64 x17 * x98 - 12 x17 * x99
   + 84 x18 * x20 + 46 x18 * x23 + 58 x18 * x29 - 92 x18 * x31
   - 86 x18 * x35 + 28 x18 * x37 + 28 x18 * x38 - 68 x18 * x44
   - 22 x18 * x46 - 90 x18 * x48 - 72 x18 * x49 + 20 x18 * x51
   + 96 x18 * x53 + 56 x18 * x54 + 20 x18 * x57 - 30 x18 * x59
   + 20 x18 * x60 + 14 x18 * x61 + 68 x18 * x64 - 42 x18 * x65
   - 70 x18 * x67 + 50 x18 * x68 - 44 x18 * x70 - 36 x18 * x71
   + 70 x18 * x72 - 8 x18 * x76 + 6 x18 * x79 + 16 x18 * x81 - 86 x18 * x82
   - 36 x18 * x83 - 40 x18 * x85 + 80 x18 * x86 + 44 x18 * x90
   - 52 x18 * x91 - 54 x18 * x92 + 50 x18 * x93 + 66 x18 * x94
   + 56 x18 * x95 - 92 x18 * x96 - 12 x18 * x97 + 78 x18 * x99 - 14 x19 ^2
   - 76 x19 * x20 + 50 x19 * x22 + 4 x19 * x24 - 8 x19 * x26 + 60 x19 * x30
   - 72 x19 * x31 - 78 x19 * x33 + 6 x19 * x34 + 94 x19 * x36
   + 46 x19 * x37 + 94 x19 * x38 - 32 x19 * x42 - 76 x19 * x43
   + 74 x19 * x48 - 26 x19 * x49 + 26 x19 * x50 + 26 x19 * x51
   - 82 x19 * x54 + 84 x19 * x57 - 20 x19 * x59 + 14 x19 * x61
   + 94 x19 * x62 + 70 x19 * x64 + 2 x19 * x65 - 28 x19 * x66 + 8 x19 * x67
   - 82 x19 * x68 - 38 x19 * x70 - 56 x19 * x71 + 44 x19 * x75
   + 62 x19 * x80 - 62 x19 * x82 + 22 x19 * x83 - 20 x19 * x89
   + 82 x19 * x90 + 60 x19 * x91 + 8 x19 * x92 + 2 x19 * x93 + 20 x19 * x95
   - 76 x20 * x21 + 78 x20 * x22 - 50 x20 * x25 + 64 x20 * x26
   - 60 x20 * x29 - 68 x20 * x30 - 48 x20 * x31 + 98 x20 * x32
   + 42 x20 * x36 + 20 x20 * x37 + 46 x20 * x39 + 56 x20 * x40
   + 24 x20 * x43 + 88 x20 * x44 - 94 x20 * x46 - 50 x20 * x54
   + 56 x20 * x55 + 4 x20 * x62 - 64 x20 * x64 + 72 x20 * x66
   - 10 x20 * x69 - 40 x20 * x70 + 96 x20 * x71 + 36 x20 * x73
   - 22 x20 * x76 - 46 x20 * x80 + 98 x20 * x81 + 48 x20 * x82
   - 42 x20 * x84 + 84 x20 * x85 - 84 x20 * x86 + 2 x20 * x90
   - 30 x20 * x91 + 88 x20 * x94 - 32 x20 * x98 + 6 x20 * x99 - 13 x21 ^2
   + 90 x21 * x23 - 90 x21 * x24 - 74 x21 * x25 + 24 x21 * x27
   - 84 x21 * x28 + 96 x21 * x29 + 62 x21 * x31 + 58 x21 * x36
   - 58 x21 * x39 + 46 x21 * x40 - 40 x21 * x41 + 64 x21 * x42
   - 48 x21 * x43 + 46 x21 * x49 - 78 x21 * x50 - 36 x21 * x51
   - 14 x21 * x55 + 30 x21 * x56 + 56 x21 * x58 + 40 x21 * x59
   - 78 x21 * x60 + 56 x21 * x64 - 60 x21 * x66 + 32 x21 * x70
   - 4 x21 * x77 + 94 x21 * x79 + 6 x21 * x80 + 2 x21 * x84 - 50 x21 * x86
   - 4 x21 * x89 - 8 x21 * x90 + 42 x21 * x92 - 72 x21 * x94 - 86 x21 * x96
   + 96 x21 * x97 - 82 x21 * x98 + 88 x21 * x99 + 52 x22 * x23
   + 56 x22 * x24 - 46 x22 * x28 - 86 x22 * x31 + 52 x22 * x32
   + 18 x22 * x41 + 96 x22 * x46 + 50 x22 * x48 + 62 x22 * x49
   - 52 x22 * x50 - 14 x22 * x52 + 18 x22 * x55 + 50 x22 * x56
   + 92 x22 * x57 + 36 x22 * x58 + 38 x22 * x59 - 62 x22 * x60
   - 58 x22 * x61 - 76 x22 * x62 + 78 x22 * x63 + 24 x22 * x64
   + 42 x22 * x65 - 58 x22 * x66 - 86 x22 * x68 - 26 x22 * x69
   + 40 x22 * x74 - 52 x22 * x75 + 26 x22 * x77 - 50 x22 * x78
   - 22 x22 * x80 + 84 x22 * x81 + 32 x22 * x83 - 28 x22 * x87
   - 60 x22 * x88 + 56 x22 * x89 + 70 x22 * x92 - 20 x22 * x93
   + 16 x22 * x94 - 74 x22 * x98 - 74 x22 * x99 - 37 x23 ^2 - 16 x23 * x26
   + 2 x23 * x29 + 74 x23 * x30 - 48 x23 * x35 + 30 x23 * x36
   - 96 x23 * x37 + 82 x23 * x42 + 96 x23 * x44 + 98 x23 * x45
   - 6 x23 * x46 - 26 x23 * x47 - 20 x23 * x49 + 18 x23 * x51
   - 18 x23 * x52 + 56 x23 * x57 - 80 x23 * x60 - 40 x23 * x63
   + 70 x23 * x64 - 36 x23 * x65 + 36 x23 * x67 - 14 x23 * x68
   + 88 x23 * x70 + 66 x23 * x74 + 46 x23 * x75 + 52 x23 * x76
   - 86 x23 * x79 + 56 x23 * x83 - 44 x23 * x85 - 36 x23 * x91
   - 18 x23 * x94 - 74 x23 * x96 + 90 x24 * x25 + 20 x24 * x27
   + 48 x24 * x28 - 94 x24 * x32 - 30 x24 * x37 + 54 x24 * x38
   + 26 x24 * x40 - 40 x24 * x42 - 10 x24 * x45 - 64 x24 * x46
   - 4 x24 * x48 - 78 x24 * x50 - 24 x24 * x54 + 52 x24 * x55
   - 74 x24 * x56 + 16 x24 * x57 - 30 x24 * x58 + 98 x24 * x59
   - 88 x24 * x61 - 86 x24 * x62 + 2 x24 * x63 - 92 x24 * x67
   + 56 x24 * x69 + 78 x24 * x70 + 36 x24 * x72 + 74 x24 * x74
   - 82 x24 * x75 + 56 x24 * x77 - 86 x24 * x78 + 16 x24 * x79
   + 8 x24 * x80 + 66 x24 * x85 - 46 x24 * x88 - 78 x24 * x93
   - 38 x24 * x94 - 12 x24 * x96 - 24 x24 * x98 - 86 x24 * x99
   + 38 x25 * x27 + 26 x25 * x28 - 32 x25 * x32 + 14 x25 * x33
   - 46 x25 * x35 - 14 x25 * x39 + 22 x25 * x41 + 72 x25 * x42
   + 70 x25 * x48 - 6 x25 * x49 - 6 x25 * x51 - 64 x25 * x54 - 34 x25 * x56
   - 28 x25 * x59 + 58 x25 * x60 + 62 x25 * x62 + 46 x25 * x64
   + 4 x25 * x65 - 14 x25 * x66 + 74 x25 * x68 - 92 x25 * x72
   + 90 x25 * x73 + 66 x25 * x74 + 16 x25 * x76 - 44 x25 * x79
   - 10 x25 * x80 - 60 x25 * x81 - 16 x25 * x87 + 10 x25 * x88
   + 78 x25 * x89 - 54 x25 * x90 - 70 x25 * x91 - 36 x25 * x92
   - 58 x25 * x94 + 84 x25 * x95 + 90 x25 * x96 - 10 x25 * x97
   + 26 x25 * x98 + 42 x26 * x27 + 78 x26 * x29 - 48 x26 * x30
   - 76 x26 * x32 + 88 x26 * x35 - 18 x26 * x37 + 58 x26 * x41
   - 74 x26 * x43 + 64 x26 * x45 - 52 x26 * x47 - 42 x26 * x48
   + 36 x26 * x51 + 74 x26 * x53 - 26 x26 * x54 + 60 x26 * x55
   + 98 x26 * x62 + 22 x26 * x64 - 66 x26 * x65 - 6 x26 * x66
   + 34 x26 * x69 - 40 x26 * x71 - 46 x26 * x77 + 98 x26 * x78
   + 66 x26 * x80 + 90 x26 * x81 + 58 x26 * x83 + 26 x26 * x85
   + 36 x26 * x87 - 50 x26 * x88 - 96 x26 * x90 + 26 x26 * x92
   + 84 x26 * x93 + 18 x26 * x97 - 76 x26 * x98 - 78 x26 * x99
   + 10 x27 * x29 - 64 x27 * x30 - 82 x27 * x35 - 52 x27 * x37
   - 42 x27 * x41 + 24 x27 * x42 - 2 x27 * x43 + 94 x27 * x44
   + 10 x27 * x46 - 92 x27 * x49 + 74 x27 * x50 - 90 x27 * x51
   - 4 x27 * x52 + 88 x27 * x55 - 66 x27 * x58 - 62 x27 * x60
   - 72 x27 * x61 - 84 x27 * x64 - 66 x27 * x66 + 40 x27 * x67
   + 78 x27 * x71 + 48 x27 * x72 - 78 x27 * x75 - 78 x27 * x78
   - 70 x27 * x79 + 12 x27 * x81 - 30 x27 * x84 + 64 x27 * x86
   - 78 x27 * x87 - 78 x27 * x88 - 16 x27 * x89 - 22 x27 * x90
   - 2 x27 * x91 + 46 x27 * x95 + 4 x27 * x99 - 18 x28 ^2 - 42 x28 * x31
   + 60 x28 * x32 + 86 x28 * x33 + 30 x28 * x39 + 26 x28 * x43
   - 60 x28 * x45 + 4 x28 * x46 + 50 x28 * x47 + 28 x28 * x48
   - 12 x28 * x49 + 70 x28 * x54 + 40 x28 * x55 + 94 x28 * x56
   - 70 x28 * x57 - 34 x28 * x58 + 20 x28 * x65 + 62 x28 * x69
   + 12 x28 * x71 + 42 x28 * x76 - 28 x28 * x77 + 86 x28 * x80
   - 20 x28 * x82 + 88 x28 * x84 + 30 x28 * x85 - 48 x28 * x87
   + 70 x28 * x88 + 12 x28 * x89 - 46 x28 * x92 + 28 x28 * x94
   - 52 x28 * x95 - 32 x28 * x98 + 60 x28 * x99 + 82 x29 * x30
   + 86 x29 * x31 - 26 x29 * x33 + 76 x29 * x34 - 18 x29 * x38
   + 74 x29 * x39 + 76 x29 * x42 + 16 x29 * x44 + 98 x29 * x45
   + 88 x29 * x46 + 30 x29 * x47 - 62 x29 * x48 + 98 x29 * x52
   + 20 x29 * x53 + 80 x29 * x56 + 56 x29 * x59 + 24 x29 * x62
   - 46 x29 * x64 + 98 x29 * x67 - 38 x29 * x68 + 82 x29 * x72
   - 92 x29 * x74 + 58 x29 * x76 + 16 x29 * x79 + 12 x29 * x80
   - 16 x29 * x83 - 90 x29 * x85 + 16 x29 * x86 - 4 x29 * x87
   - 90 x29 * x88 + 22 x29 * x89 + 16 x29 * x92 + 72 x29 * x93
   + 80 x29 * x94 - 60 x29 * x96 - 16 x30 * x32 - 10 x30 * x33
   - 2 x30 * x34 + 2 x30 * x36 - 54 x30 * x38 - 10 x30 * x39 + 64 x30 * x41
   + 86 x30 * x45 + 16 x30 * x46 - 52 x30 * x47 - 10 x30 * x49
   - 6 x30 * x50 + 66 x30 * x52 + 86 x30 * x59 + 12 x30 * x64
   + 52 x30 * x68 - 88 x30 * x70 - 82 x30 * x71 - 92 x30 * x75
   - 12 x30 * x76 - 26 x30 * x80 - 34 x30 * x82 - 44 x30 * x84
   + 88 x30 * x85 - 64 x30 * x87 + 70 x30 * x88 + 40 x30 * x89
   - 78 x30 * x91 + 78 x30 * x93 - 92 x30 * x94 - 48 x30 * x96
   + 18 x30 * x98 + 48 x30 * x99 - 6 x31 * x33 - 30 x31 * x35
   + 16 x31 * x37 - 52 x31 * x38 + 14 x31 * x39 + 18 x31 * x40
   + 4 x31 * x52 - 44 x31 * x53 - 98 x31 * x56 + 78 x31 * x60
   - 82 x31 * x61 - 88 x31 * x62 + 82 x31 * x63 - 52 x31 * x68
   + 46 x31 * x70 + 12 x31 * x71 - 28 x31 * x72 - 68 x31 * x73
   + 26 x31 * x74 - 68 x31 * x77 - 86 x31 * x83 + 88 x31 * x84
   + 46 x31 * x88 + 4 x31 * x90 + 30 x31 * x91 - 62 x31 * x92
   + 62 x31 * x93 + 86 x31 * x97 - 76 x31 * x98 - 62 x32 * x33
   - 6 x32 * x34 + 90 x32 * x38 + 64 x32 * x40 - 32 x32 * x41
   + 86 x32 * x42 + 98 x32 * x43 - 48 x32 * x47 - 46 x32 * x49
   - 4 x32 * x50 - 48 x32 * x52 + 34 x32 * x53 + 82 x32 * x54
   - 16 x32 * x56 - 12 x32 * x57 - 60 x32 * x59 - 12 x32 * x60
   + 54 x32 * x64 + 72 x32 * x67 + 10 x32 * x68 + 92 x32 * x69
   + 90 x32 * x70 - 94 x32 * x71 + 94 x32 * x74 + 76 x32 * x76
   + 38 x32 * x77 + 12 x32 * x79 + 60 x32 * x80 - 8 x32 * x81
   + 56 x32 * x83 - 54 x32 * x84 + 50 x32 * x85 + 18 x32 * x86
   - 24 x32 * x91 + 64 x32 * x95 + 26 x32 * x98 - 64 x33 * x34
   + 56 x33 * x35 - 66 x33 * x36 + 20 x33 * x37 + 24 x33 * x40
   - 64 x33 * x43 + 14 x33 * x44 - 38 x33 * x47 + 12 x33 * x49
   - 66 x33 * x51 + 56 x33 * x54 + 80 x33 * x55 - 52 x33 * x56
   - 82 x33 * x57 - 32 x33 * x58 - 14 x33 * x59 - 64 x33 * x62
   - 64 x33 * x63 + 2 x33 * x66 + 26 x33 * x71 + 64 x33 * x73
   - 20 x33 * x75 + 34 x33 * x76 + 56 x33 * x77 + 26 x33 * x80
   - 62 x33 * x81 + 90 x33 * x82 + 6 x33 * x83 + 76 x33 * x86
   + 64 x33 * x87 - 84 x33 * x88 - 22 x33 * x89 + 82 x33 * x90
   - 96 x33 * x91 + 80 x33 * x94 + 80 x33 * x98 - 9 x34 ^2 + 66 x34 * x35
   + 16 x34 * x40 + 82 x34 * x46 - 38 x34 * x49 + 40 x34 * x55
   - 32 x34 * x60 + 92 x34 * x62 - 96 x34 * x63 - 80 x34 * x66
   - 50 x34 * x70 - 58 x34 * x76 - 88 x34 * x78 - 22 x34 * x80
   + 2 x34 * x81 - 42 x34 * x84 + 24 x34 * x87 - 86 x34 * x88
   + 96 x34 * x89 - 18 x34 * x90 + 50 x34 * x91 + 76 x34 * x92
   - 76 x34 * x95 + 42 x34 * x96 - 16 x34 * x97 + 86 x34 * x99 - 22 x35 ^2
   - 88 x35 * x37 - 42 x35 * x41 + 82 x35 * x43 + 84 x35 * x44
   - 98 x35 * x48 + 18 x35 * x49 + 10 x35 * x51 - 38 x35 * x52
   - 98 x35 * x55 + 4 x35 * x56 - 10 x35 * x57 - 86 x35 * x58
   - 76 x35 * x60 + 46 x35 * x64 + 68 x35 * x67 + 70 x35 * x69
   + 82 x35 * x74 + 24 x35 * x77 + 18 x35 * x85 - 28 x35 * x87
   - 80 x35 * x89 - 4 x35 * x91 - 18 x35 * x93 - 82 x35 * x96
   + 92 x35 * x97 - 4 x35 * x98 + 42 x36 * x37 + 34 x36 * x39
   + 72 x36 * x41 + 68 x36 * x43 - 86 x36 * x44 + 30 x36 * x47
   + 24 x36 * x48 + 32 x36 * x49 - 86 x36 * x50 - 56 x36 * x56
   - 86 x36 * x57 - 58 x36 * x58 - 42 x36 * x60 + 78 x36 * x65
   + 14 x36 * x66 + 6 x36 * x67 - 56 x36 * x69 - 86 x36 * x70
   - 88 x36 * x71 + 72 x36 * x72 - 46 x36 * x73 + 68 x36 * x74
   + 70 x36 * x80 + 46 x36 * x81 + 28 x36 * x82 + 86 x36 * x87
   + 42 x36 * x89 + 38 x36 * x91 + 94 x36 * x92 + 46 x36 * x93
   - 92 x36 * x95 - 40 x36 * x96 + 72 x36 * x97 - 74 x36 * x98
   - 98 x36 * x99 + 19 x37 ^2 + 58 x37 * x40 + 24 x37 * x41 + 40 x37 * x43
   + 20 x37 * x44 - 78 x37 * x45 - 72 x37 * x47 - 64 x37 * x49
   + 12 x37 * x50 + 2 x37 * x51 + 56 x37 * x52 + 74 x37 * x54
   - 86 x37 * x56 + 10 x37 * x57 + 18 x37 * x60 + 24 x37 * x61
   - 54 x37 * x67 + 72 x37 * x69 + 48 x37 * x71 + 40 x37 * x72
   - 90 x37 * x76 - 12 x37 * x77 + 72 x37 * x79 - 88 x37 * x81
   - 58 x37 * x83 - 2 x37 * x86 - 12 x37 * x89 + 64 x37 * x90
   + 54 x37 * x91 - 46 x37 * x93 - 10 x37 * x97 + 86 x38 * x41
   + 84 x38 * x46 - 52 x38 * x47 - 10 x38 * x48 + 78 x38 * x49
   - 90 x38 * x50 - 36 x38 * x51 + 28 x38 * x52 + 58 x38 * x54
   - 24 x38 * x56 + 12 x38 * x57 + 78 x38 * x60 - 26 x38 * x65
   + 58 x38 * x66 + 50 x38 * x68 + 4 x38 * x69 - 94 x38 * x72
   + 34 x38 * x73 + 62 x38 * x74 + 40 x38 * x75 - 76 x38 * x77
   + 6 x38 * x78 - 64 x38 * x79 - 66 x38 * x80 + 38 x38 * x81
   + 50 x38 * x84 + 72 x38 * x85 + 52 x38 * x93 + 60 x38 * x95
   + 18 x38 * x98 - 38 x38 * x99 + 43 x39 ^2 + 38 x39 * x40 - 94 x39 * x42
   - 98 x39 * x44 + 94 x39 * x50 + 32 x39 * x51 - 94 x39 * x55
   + 80 x39 * x56 + 18 x39 * x59 + 38 x39 * x67 + 70 x39 * x72
   - 48 x39 * x74 + 10 x39 * x75 + 86 x39 * x76 + 48 x39 * x77
   + 6 x39 * x78 + 90 x39 * x83 - 22 x39 * x86 - 96 x39 * x87
   + 82 x39 * x95 + 30 x39 * x96 + 42 x39 * x97 + 70 x39 * x98 - 46 x40 ^2
   - 90 x40 * x41 + 64 x40 * x43 + 76 x40 * x50 - 44 x40 * x52
   + 88 x40 * x55 - 94 x40 * x56 - 92 x40 * x57 - 66 x40 * x60
   - 84 x40 * x61 + 32 x40 * x62 + 76 x40 * x68 - 78 x40 * x69
   - 32 x40 * x71 - 48 x40 * x72 - 40 x40 * x73 - 28 x40 * x82
   + 26 x40 * x83 + 4 x40 * x88 + 22 x40 * x91 + 46 x40 * x92
   + 48 x40 * x96 - 70 x40 * x97 + 20 x40 * x98 + 8 x40 * x99 + 39 x41 ^2
   - 80 x41 * x42 - 20 x41 * x43 + 98 x41 * x46 - 4 x41 * x47
   + 64 x41 * x50 - 34 x41 * x51 + 58 x41 * x52 + 48 x41 * x54
   - 22 x41 * x55 - 96 x41 * x57 - 54 x41 * x58 - 72 x41 * x61
   + 58 x41 * x64 + 90 x41 * x66 - 8 x41 * x69 - 72 x41 * x71 + 6 x41 * x72
   - 24 x41 * x75 - 66 x41 * x80 + 32 x41 * x81 - 24 x41 * x84
   - 76 x41 * x86 - 44 x41 * x87 + 8 x41 * x88 + 2 x41 * x89 - 66 x41 * x90
   + 4 x41 * x91 - 36 x41 * x92 + 44 x41 * x94 + 28 x41 * x97 - 2 x41 * x99
   - 60 x42 * x45 + 62 x42 * x46 - 38 x42 * x50 - 78 x42 * x51
   - 2 x42 * x52 + 4 x42 * x53 + 36 x42 * x54 + 78 x42 * x56 - 30 x42 * x57
   + 90 x42 * x58 + 46 x42 * x60 - 6 x42 * x61 - 36 x42 * x63
   + 50 x42 * x64 + 62 x42 * x65 + 58 x42 * x67 - 78 x42 * x68
   + 46 x42 * x71 - 76 x42 * x74 - 88 x42 * x76 - 6 x42 * x78
   + 54 x42 * x84 + 98 x42 * x86 - 4 x42 * x87 - 50 x42 * x88
   - 28 x42 * x90 + 50 x42 * x91 - 68 x42 * x93 + 80 x42 * x94
   - 70 x42 * x98 + 17 x43 ^2 - 76 x43 * x52 - 70 x43 * x55 + 26 x43 * x56
   + 16 x43 * x57 - 6 x43 * x59 + 86 x43 * x64 - 22 x43 * x66
   - 52 x43 * x68 - 68 x43 * x69 - 92 x43 * x71 - 64 x43 * x75
   + 76 x43 * x76 - 88 x43 * x77 + 60 x43 * x80 - 44 x43 * x86
   + 84 x43 * x87 + 38 x43 * x89 + 94 x43 * x91 + 10 x43 * x92
   + 22 x43 * x93 + 22 x43 * x97 - 14 x43 * x98 - 52 x44 * x45
   + 94 x44 * x47 + 30 x44 * x49 + 24 x44 * x51 + 34 x44 * x52
   - 28 x44 * x54 - 94 x44 * x55 + 66 x44 * x57 - 20 x44 * x61
   - 16 x44 * x63 - 50 x44 * x64 - 24 x44 * x66 - 88 x44 * x69
   - 16 x44 * x70 + 68 x44 * x71 - 38 x44 * x72 + 36 x44 * x75
   + 86 x44 * x77 + 44 x44 * x78 + 58 x44 * x79 + 80 x44 * x81
   - 68 x44 * x82 + 14 x44 * x85 + 22 x44 * x88 + 22 x44 * x91
   + 82 x44 * x93 - 64 x44 * x94 - 88 x44 * x96 - 16 x44 * x98
   - 82 x44 * x99 + 49 x45 ^2 - 38 x45 * x46 + 78 x45 * x47 + 6 x45 * x49
   - 80 x45 * x53 - 2 x45 * x54 - 8 x45 * x55 - 28 x45 * x56 - 56 x45 * x59
   + 54 x45 * x60 + 78 x45 * x61 + 50 x45 * x62 - 80 x45 * x63
   + 8 x45 * x65 - 18 x45 * x66 + 32 x45 * x68 + 82 x45 * x70
   + 44 x45 * x71 - 32 x45 * x72 + 64 x45 * x76 - 16 x45 * x82
   + 34 x45 * x83 + 56 x45 * x84 - 26 x45 * x87 - 92 x45 * x89
   - 68 x45 * x96 + 68 x45 * x97 - 48 x45 * x99 + 44 x46 ^2 - 32 x46 * x49
   + 6 x46 * x51 + 42 x46 * x54 + 32 x46 * x56 + 42 x46 * x58
   - 78 x46 * x59 + 22 x46 * x63 - 14 x46 * x67 - 72 x46 * x72
   - 14 x46 * x77 + 24 x46 * x79 + 6 x46 * x81 - 28 x46 * x82
   + 18 x46 * x84 - 42 x46 * x85 - 60 x46 * x88 + 42 x46 * x91
   - 22 x46 * x93 - 4 x46 * x94 + 68 x46 * x95 + 24 x46 * x97
   - 46 x46 * x98 + 66 x47 * x48 + 24 x47 * x52 - 70 x47 * x53
   - 60 x47 * x56 - 24 x47 * x57 + 30 x47 * x60 + 16 x47 * x61
   + 54 x47 * x63 + 50 x47 * x68 + 36 x47 * x69 + 98 x47 * x70
   - 16 x47 * x72 + 56 x47 * x82 - 70 x47 * x83 + 18 x47 * x87
   - 74 x47 * x90 + 16 x47 * x92 + 98 x47 * x93 - 96 x47 * x97
   - 80 x47 * x98 + 22 x47 * x99 - 36 x48 ^2 - 24 x48 * x53 + 78 x48 * x54
   - 16 x48 * x56 - 66 x48 * x58 + 18 x48 * x60 + 16 x48 * x62
   - 96 x48 * x63 - 8 x48 * x65 - 42 x48 * x66 + 16 x48 * x69
   + 14 x48 * x70 - 14 x48 * x71 + 36 x48 * x72 - 32 x48 * x74
   - 48 x48 * x75 + 92 x48 * x79 - 94 x48 * x81 + 60 x48 * x84
   - 22 x48 * x86 + 86 x48 * x87 - 90 x48 * x90 - 44 x48 * x95
   - 48 x48 * x97 - 92 x48 * x98 - 14 x49 * x50 + 10 x49 * x51
   - 66 x49 * x53 - 64 x49 * x56 + 34 x49 * x57 + 34 x49 * x60
   - 86 x49 * x61 + 84 x49 * x62 + 58 x49 * x64 + 40 x49 * x65
   - 6 x49 * x70 - 8 x49 * x74 + 98 x49 * x77 + 90 x49 * x78 - 74 x49 * x80
   - 32 x49 * x81 - 14 x49 * x84 - 44 x49 * x88 + 12 x49 * x89
   + 52 x49 * x91 + 62 x49 * x93 - 28 x49 * x94 - 14 x49 * x96
   + 56 x49 * x97 - 62 x50 * x51 - 96 x50 * x52 + 52 x50 * x56
   + 8 x50 * x57 - 50 x50 * x58 + 30 x50 * x62 + 64 x50 * x63
   + 64 x50 * x66 + 76 x50 * x67 + 34 x50 * x71 + 42 x50 * x72
   - 98 x50 * x73 - 72 x50 * x74 - 64 x50 * x76 - 32 x50 * x77
   - 4 x50 * x78 + 6 x50 * x80 + 94 x50 * x82 - 12 x50 * x86 + 2 x50 * x90
   + 22 x50 * x94 - 68 x50 * x95 - 14 x50 * x97 + 18 x50 * x98
   + 96 x51 * x52 + 58 x51 * x53 + 44 x51 * x54 - 48 x51 * x55
   - 78 x51 * x56 - 98 x51 * x58 + 70 x51 * x59 - 16 x51 * x60
   - 70 x51 * x61 - 68 x51 * x62 + 74 x51 * x64 - 16 x51 * x66
   + 20 x51 * x68 - 78 x51 * x75 + 52 x51 * x78 - 70 x51 * x80
   - 38 x51 * x85 - 28 x51 * x87 + 90 x51 * x89 - 88 x51 * x90
   + 82 x51 * x95 - 46 x51 * x98 + 50 x51 * x99 - 41 x52 ^2 + 90 x52 * x53
   + 24 x52 * x54 + 60 x52 * x55 - 84 x52 * x57 + 60 x52 * x59
   + 12 x52 * x62 + 6 x52 * x64 + 72 x52 * x66 + 54 x52 * x67 + 2 x52 * x70
   - 58 x52 * x73 - 64 x52 * x76 + 76 x52 * x80 - 30 x52 * x83
   + 40 x52 * x84 - 42 x52 * x85 + 56 x52 * x90 - 42 x52 * x91
   + 76 x52 * x92 + 8 x52 * x93 - 60 x52 * x94 - 76 x52 * x95
   + 40 x52 * x98 + 70 x52 * x99 + 37 x53 ^2 - 20 x53 * x55 + 40 x53 * x56
   + 10 x53 * x59 - 48 x53 * x61 + 86 x53 * x64 + 50 x53 * x65
   + 62 x53 * x66 + 96 x53 * x72 + 48 x53 * x74 + 44 x53 * x75
   - 58 x53 * x76 - 48 x53 * x79 + 48 x53 * x80 - 92 x53 * x81
   + 10 x53 * x82 + 36 x53 * x84 - 28 x53 * x87 + 10 x53 * x89
   - 84 x53 * x90 - 12 x53 * x91 + 60 x53 * x92 + 12 x53 * x93
   - 36 x53 * x99 - 7 x54 ^2 + 26 x54 * x64 - 68 x54 * x67 - 94 x54 * x69
   - 62 x54 * x70 + 56 x54 * x72 - 42 x54 * x74 + 64 x54 * x75
   - 76 x54 * x76 + 88 x54 * x80 - 14 x54 * x81 + 94 x54 * x91
   + 68 x54 * x92 + 32 x54 * x94 + 12 x54 * x95 + 52 x54 * x96
   + 74 x54 * x98 + 26 x54 * x99 - 34 x55 * x56 + 58 x55 * x57
   + 80 x55 * x58 - 64 x55 * x61 - 96 x55 * x62 + 6 x55 * x64
   - 16 x55 * x69 + 94 x55 * x70 - 50 x55 * x72 + 80 x55 * x73
   - 46 x55 * x76 - 84 x55 * x77 - 48 x55 * x80 - 18 x55 * x81
   - 34 x55 * x82 + 64 x55 * x84 - 4 x55 * x90 - 76 x55 * x92
   - 16 x55 * x93 + 92 x55 * x95 + 44 x55 * x99 - 2 x56 ^2 + 52 x56 * x59
   + 76 x56 * x60 - 82 x56 * x61 + 68 x56 * x66 - 24 x56 * x67
   - 30 x56 * x68 + 58 x56 * x69 - 46 x56 * x72 + 50 x56 * x73
   - 18 x56 * x77 - 52 x56 * x78 + 22 x56 * x79 + 18 x56 * x80
   + 24 x56 * x85 + 52 x56 * x86 - 98 x56 * x87 + 96 x56 * x90
   - 44 x56 * x93 - 72 x56 * x94 + 84 x56 * x96 + 46 x56 * x99
   - 88 x57 * x58 + 2 x57 * x59 - 22 x57 * x60 + 88 x57 * x62
   - 60 x57 * x63 - 68 x57 * x65 - 92 x57 * x66 - 40 x57 * x67
   - 28 x57 * x69 - 20 x57 * x79 + 84 x57 * x80 + 68 x57 * x81
   + 66 x57 * x82 + 28 x57 * x85 - 76 x57 * x86 - 98 x57 * x87
   + 8 x57 * x89 + 94 x57 * x90 - 32 x57 * x92 - 22 x57 * x93
   + 74 x57 * x96 + 12 x57 * x98 + 28 x57 * x99 - 86 x58 * x59
   - 16 x58 * x60 - 90 x58 * x61 - 10 x58 * x63 + 4 x58 * x64
   - 50 x58 * x65 + 16 x58 * x66 + 96 x58 * x67 + 34 x58 * x68
   + 34 x58 * x69 + 42 x58 * x73 - 32 x58 * x74 - 36 x58 * x75
   - 32 x58 * x78 - 28 x58 * x79 - 38 x58 * x82 - 22 x58 * x84
   + 76 x58 * x85 + 16 x58 * x87 + 34 x58 * x88 - 34 x58 * x93
   + 4 x58 * x95 - 46 x58 * x96 + 84 x58 * x97 - 62 x58 * x98 + 24 x59 ^2
   + 20 x59 * x61 - 82 x59 * x65 - 66 x59 * x66 + 84 x59 * x67
   + 36 x59 * x68 - 94 x59 * x69 - 48 x59 * x70 - 24 x59 * x71
   - 76 x59 * x72 + 76 x59 * x73 - 4 x59 * x75 + 12 x59 * x81
   + 82 x59 * x83 + 2 x59 * x85 + 96 x59 * x86 - 6 x59 * x92 - 80 x59 * x93
   - 98 x59 * x94 + 74 x59 * x95 - 90 x59 * x96 + 52 x59 * x99
   - 66 x60 * x61 - 6 x60 * x65 + 96 x60 * x66 - 30 x60 * x69
   - 24 x60 * x70 + 74 x60 * x71 + 20 x60 * x73 - 6 x60 * x79
   - 54 x60 * x80 - 90 x60 * x82 + 18 x60 * x83 + 88 x60 * x85
   + 42 x60 * x86 - 66 x60 * x88 + 82 x60 * x90 + 66 x60 * x93
   + 26 x60 * x94 + 94 x60 * x95 + 26 x60 * x97 - 4 x60 * x99 - 40 x61 ^2
   - 66 x61 * x65 - 80 x61 * x67 + 12 x61 * x69 - 26 x61 * x71
   + 54 x61 * x76 - 58 x61 * x77 + 44 x61 * x78 + 12 x61 * x81
   + 28 x61 * x84 - 92 x61 * x85 + 54 x61 * x88 + 82 x61 * x89
   - 42 x61 * x90 + 22 x61 * x92 - 70 x61 * x93 + 54 x61 * x94
   + 10 x61 * x95 - 14 x61 * x96 - 8 x62 * x63 + 8 x62 * x64 - 14 x62 * x65
   + 30 x62 * x68 + 76 x62 * x70 + 32 x62 * x71 + 20 x62 * x74
   + 84 x62 * x75 + 86 x62 * x76 + 12 x62 * x78 - 64 x62 * x79
   - 8 x62 * x81 + 54 x62 * x84 + 62 x62 * x85 + 40 x62 * x86
   - 56 x62 * x89 + 50 x62 * x90 - 6 x62 * x92 - 94 x62 * x95 + 2 x62 * x96
   - 16 x62 * x97 + 6 x62 * x98 - 18 x63 * x66 - 6 x63 * x69 + 32 x63 * x70
   + 74 x63 * x71 - 50 x63 * x73 - 52 x63 * x74 + 76 x63 * x76
   + 48 x63 * x78 - 84 x63 * x79 + 84 x63 * x80 + 32 x63 * x83
   + 20 x63 * x85 + 2 x63 * x86 + 70 x63 * x87 + 52 x63 * x88
   - 38 x63 * x91 + 64 x63 * x93 + 88 x63 * x94 - 31 x64 ^2 - 30 x64 * x65
   - 56 x64 * x67 - 40 x64 * x68 - 26 x64 * x71 + 96 x64 * x74
   - 84 x64 * x75 + 76 x64 * x76 + 2 x64 * x77 - 66 x64 * x79
   - 70 x64 * x80 - 62 x64 * x85 - 88 x64 * x86 + 12 x64 * x88
   - 78 x64 * x89 - 48 x64 * x91 - 6 x64 * x95 - 22 x64 * x99
   - 98 x65 * x69 - 54 x65 * x71 + 98 x65 * x73 + 40 x65 * x77
   - 30 x65 * x80 + 58 x65 * x84 - 38 x65 * x88 - 52 x65 * x89
   + 44 x65 * x90 - 8 x65 * x91 - 34 x65 * x93 - 78 x65 * x94
   + 70 x65 * x96 - 90 x65 * x97 + 50 x65 * x98 + 11 x66 ^2 - 66 x66 * x74
   - 86 x66 * x76 - 34 x66 * x77 + 34 x66 * x78 - 88 x66 * x79
   + 18 x66 * x82 + 8 x66 * x84 + 86 x66 * x85 - 60 x66 * x86
   + 26 x66 * x87 - 78 x66 * x90 - 32 x66 * x91 + 50 x66 * x92
   + 2 x66 * x93 - 22 x66 * x94 - 50 x66 * x95 - 42 x66 * x96
   + 50 x66 * x97 - 78 x66 * x98 + 12 x67 ^2 + 60 x67 * x70 - 82 x67 * x74
   + 36 x67 * x80 + 50 x67 * x81 - 40 x67 * x82 + 22 x67 * x83
   - 78 x67 * x85 - 56 x67 * x86 - 40 x67 * x87 - 98 x67 * x88
   - 64 x67 * x90 + 50 x67 * x91 - 16 x67 * x94 + 56 x67 * x95
   - 66 x67 * x97 + 14 x67 * x99 + 28 x68 ^2 + 94 x68 * x72 + 20 x68 * x75
   - 78 x68 * x84 - 16 x68 * x86 - 66 x68 * x88 + 36 x68 * x89
   - 4 x68 * x91 - 26 x68 * x92 - 66 x68 * x93 - 98 x68 * x94
   - 96 x68 * x98 - 30 x69 * x71 + 96 x69 * x72 - 18 x69 * x74
   + 26 x69 * x75 + 52 x69 * x76 - 88 x69 * x81 + 8 x69 * x82
   + 12 x69 * x83 + 90 x69 * x84 - 46 x69 * x85 + 84 x69 * x86
   - 2 x69 * x87 - 30 x69 * x88 - 58 x69 * x90 + 36 x69 * x92
   - 52 x69 * x93 + 76 x69 * x98 - 24 x70 * x71 + 34 x70 * x72
   - 4 x70 * x73 + 64 x70 * x74 + 22 x70 * x75 - 96 x70 * x76
   - 58 x70 * x77 - 86 x70 * x80 + 20 x70 * x83 - 30 x70 * x85
   + 60 x70 * x86 + 52 x70 * x89 + 80 x70 * x90 - 76 x70 * x91
   - 86 x70 * x94 - 28 x70 * x97 - 14 x71 ^2 + 92 x71 * x73 + 82 x71 * x76
   - 20 x71 * x78 + 18 x71 * x80 - 92 x71 * x81 + 24 x71 * x85
   + 78 x71 * x86 - 16 x71 * x88 + 62 x71 * x91 - 2 x71 * x92
   - 24 x71 * x93 + 52 x71 * x95 + 44 x71 * x96 - 40 x71 * x97
   - 64 x71 * x98 - 48 x72 ^2 + 50 x72 * x74 - 80 x72 * x78 + 2 x72 * x79
   - 40 x72 * x81 - 4 x72 * x82 + 82 x72 * x83 + 6 x72 * x85 + 56 x72 * x86
   - 92 x72 * x87 - 94 x72 * x91 - 82 x72 * x92 - 92 x72 * x93
   + 74 x72 * x95 + 74 x72 * x96 - 16 x72 * x97 + 92 x72 * x99
   + 58 x73 * x74 + 76 x73 * x78 - 32 x73 * x79 - 70 x73 * x81
   + 52 x73 * x85 + 64 x73 * x88 + 62 x73 * x89 - 46 x73 * x90
   - 14 x73 * x92 + 88 x73 * x95 - 70 x73 * x99 - 26 x74 ^2 - 4 x74 * x75
   - 76 x74 * x76 - 78 x74 * x78 + 16 x74 * x80 - 24 x74 * x82
   - 92 x74 * x84 + 58 x74 * x87 + 84 x74 * x88 + 72 x74 * x89
   - 56 x74 * x94 - 28 x74 * x95 - 80 x74 * x96 + 6 x74 * x97 + 4 x74 * x98
   + 36 x75 * x76 - 36 x75 * x77 + 26 x75 * x78 - 62 x75 * x79
   - 2 x75 * x81 + 90 x75 * x84 - 78 x75 * x86 - 66 x75 * x87
   - 14 x75 * x88 + 66 x75 * x91 + 80 x75 * x92 - 94 x75 * x93
   - 84 x75 * x94 + 26 x75 * x99 + 20 x76 ^2 + 38 x76 * x79 - 66 x76 * x80
   + 98 x76 * x81 - 24 x76 * x82 - 32 x76 * x84 + 8 x76 * x87
   + 16 x76 * x88 + 58 x76 * x92 + 38 x76 * x93 + 20 x76 * x95
   + 18 x76 * x96 - 62 x76 * x98 - 27 x77 ^2 - 2 x77 * x78 + 40 x77 * x81
   - 94 x77 * x82 + 44 x77 * x85 - 90 x77 * x87 - 60 x77 * x91
   + 56 x77 * x93 + 80 x77 * x99 - 82 x78 * x79 + 46 x78 * x81
   - 42 x78 * x82 + 12 x78 * x83 + 8 x78 * x84 + 70 x78 * x85 + 2 x78 * x89
   - 44 x78 * x90 - 32 x78 * x91 - 20 x78 * x92 + 94 x78 * x94
   - 36 x78 * x95 - 8 x78 * x97 - 68 x78 * x99 + 18 x79 * x81 - 2 x79 * x82
   + 52 x79 * x85 + 96 x79 * x88 - 36 x79 * x89 + 90 x79 * x90
   + 54 x79 * x91 + 92 x79 * x92 + 98 x79 * x94 + 46 x79 * x96
   + 56 x79 * x99 - 62 x80 * x81 + 94 x80 * x82 - 90 x80 * x84
   + 64 x80 * x87 - 36 x80 * x88 - 50 x80 * x89 - 58 x80 * x93
   - 18 x80 * x94 + 8 x80 * x95 + 62 x80 * x97 - 86 x80 * x99
   - 20 x81 * x84 + 80 x81 * x87 - 28 x81 * x90 + 36 x81 * x91
   - 52 x81 * x92 + 38 x81 * x95 - 68 x81 * x96 + 2 x81 * x99
   + 14 x82 * x83 - 38 x82 * x85 + 62 x82 * x87 - 98 x82 * x88
   + 10 x82 * x93 + 20 x82 * x94 + 18 x82 * x96 - 22 x83 * x86
   + 38 x83 * x90 + 58 x83 * x92 + 78 x83 * x93 - 36 x83 * x94
   - 46 x83 * x96 + 78 x83 * x97 - 6 x83 * x98 - 34 x83 * x99 + 6 x84 * x85
   + 30 x84 * x87 - 70 x84 * x88 + 48 x84 * x91 - 46 x84 * x93
   + 24 x84 * x94 + 60 x84 * x99 + 88 x85 * x87 - 88 x85 * x88
   - 8 x85 * x90 - 24 x85 * x91 + 96 x85 * x92 - 42 x85 * x93
   + 70 x85 * x94 - 90 x85 * x95 + 32 x86 ^2 + 66 x86 * x87 + 38 x86 * x89
   - 40 x86 * x90 - 92 x86 * x91 - 38 x86 * x92 + 12 x86 * x94
   + 50 x86 * x96 + 40 x86 * x97 + 45 x87 ^2 - 48 x87 * x92 + 28 x87 * x98
   - 39 x88 ^2 + 30 x88 * x89 + 12 x88 * x93 - 74 x88 * x95 + 2 x88 * x97
   + 46 x88 * x99 + 23 x89 ^2 + 88 x89 * x93 - 54 x89 * x98 - 25 x90 ^2
   + 24 x90 * x91 + 58 x90 * x92 + 84 x90 * x93 - 6 x90 * x94
   - 68 x90 * x96 + 60 x90 * x98 - 58 x90 * x99 + 84 x91 * x93
   - 34 x91 * x94 + 52 x91 * x96 - 60 x91 * x97 - 78 x91 * x98
   - 40 x91 * x99 + 4 x92 ^2 - 68 x92 * x93 - 24 x92 * x95 + 30 x92 * x96
   + 42 x92 * x98 + 70 x92 * x99 + 23 x93 ^2 - 64 x93 * x94 + 96 x93 * x96
   + 76 x93 * x97 - 38 x93 * x98 - 37 x94 ^2 - 22 x94 * x95 - 56 x94 * x96
   + 34 x94 * x97 + 70 x94 * x98 - 34 x94 * x99 - 6 x95 ^2 - 8 x95 * x96
   + 54 x95 * x99 + 12 x96 ^2 - 24 x96 * x97 + 30 x96 * x99 - 11 x97 ^2
   - 86 x97 * x99 - 12 x98 ^2 + 36 x98 * x99 ] / 2 
Subject To
Bounds
 x0 <= 1
 x1 <= 1
 x2 <= 1
 x3 <= 1
 x4 <= 1
 x5 <= 1
 x6 <= 1
 x7 <= 1
 x8 <= 1
 x9 <= 1
 x10 <= 1
 x11 <= 1
 x12 <= 1
 x13 <= 1
 x14 <= 1
 x15 <= 1
 x16 <= 1
 x17 <= 1
 x18 <= 1
 x19 <= 1
 x20 <= 1
 x21 <= 1
 x22 <= 1
 x23 <= 1
 x24 <= 1
 x25 <= 1
 x26 <= 1
 x27 <= 1
 x28 <= 1
 x29 <= 1
 x30 <= 1
 x31 <= 1
 x32 <= 1
 x33 <= 1
 x34 <= 1
 x35 <= 1
 x36 <= 1
 x37 <= 1
 x38 <= 1
 x39 <= 1
 x40 <= 1
 x41 <= 1
 x42 <= 1
 x43 <= 1
 x44 <= 1
 x45 <= 1
 x46 <= 1
 x47 <= 1
 x48 <= 1
 x49 <= 1
 x50 <= 1
 x51 <= 1
 x52 <= 1
 x53 <= 1
 x54 <= 1
 x55 <= 1
 x56 <= 1
 x57 <= 1
 x58 <= 1
 x59 <= 1
 x60 <= 1
 x61 <= 1
 x62 <= 1
 x63 <= 1
 x64 <= 1
 x65 <= 1
 x66 <= 1
 x67 <= 1
 x68 <= 1
 x69 <= 1
 x70 <= 1
 x71 <= 1
 x72 <= 1
 x73 <= 1
 x74 <= 1
 x75 <= 1
 x76 <= 1
 x77 <= 1
 x78 <= 1
 x79 <= 1
 x80 <= 1
 x81 <= 1
 x82 <= 1
 x83 <= 1
 x84 <= 1
 x85 <= 1
 x86 <= 1
 x87 <= 1
 x88 <= 1
 x89 <= 1
 x90 <= 1
 x91 <= 1
 x92 <= 1
 x93 <= 1
 x94 <= 1
 x95 <= 1
 x96 <= 1
 x97 <= 1
 x98 <= 1
 x99 <= 1
End
